20200106 339600.00 298100.00
20180621 339900.00 237400.00
20180222 340067.14 177560.00
20180105 340067.14 177560.00
20170630 340067.14 177432.80
20170420 340067.14 176894.60
20170215 340067.14 176218.40
20170104 281291.92 176218.40
20161219 280925.92 176218.40
20161011 280925.92 115171.89
20160627 239468.64 115171.89
20151231 159645.76 76781.26
20151218 159645.76 76781.26
